172801
15,32,73,31,57,8,76,16,37,29,34,74,39,81,43,21,4,17,36,45,44,53,61,79,70,65,25,69,13,66,75,72,9,0,63,28,12,55,6,26,10,27,82,7,58,67,18,23,30,47,20,77,1,59,80,46,33,48,42,54,22,14,41,68,24,60,5,78,62,38,40,51,52,64,49,3,2,56,11,50,71,35,19,15
